# Solution for model count
# Objective value = 8
z#1 0
z#2 0
z#3 0
z#4 1
z#5 0
z#6 0
z#7 0
z#8 1
z#9 0
z#10 1
z#11 0
z#12 0
z#13 1
z#14 1
z#15 0
z#16 0
z#17 0
z#18 0
z#19 1
z#20 0
z#21 1
z#22 1
z#23 0
z#24 0
x#24 0
x#23 0
x#22 2455
x#21 675
x#20 0
x#19 122
x#18 0
x#17 0
x#16 0
x#15 0
x#14 438
x#13 1610
x#12 0
x#11 0
x#10 1672
x#9 0
x#8 757
x#7 0
x#6 0
x#5 0
x#4 2271
x#3 0
x#2 0
x#1 0
